p ds 20 5
1 6
1 7
1 11
1 15
1 17
1 18
1 20
2 3
2 5
2 10
2 12
2 14
2 15
2 16
3 4
3 7
3 9
3 11
3 12
3 13
3 16
3 18
3 20
4 6
4 7
4 8
4 10
4 14
4 15
4 16
4 18
5 7
5 8
5 9
5 10
5 11
5 12
5 13
5 14
6 7
6 8
6 11
6 13
6 15
6 16
6 17
6 20
7 8
7 9
7 10
7 11
7 12
7 13
7 15
7 17
7 19
8 11
8 12
8 14
8 16
8 18
8 20
9 13
9 14
9 15
9 16
9 17
10 11
10 12
10 14
10 16
10 17
10 18
11 18
11 19
12 15
12 18
12 19
12 20
13 15
13 16
13 19
14 15
14 16
14 17
15 16
15 17
15 20
16 18
16 19
16 20
18 20
